RT is False
Default write of storage_offers_DA.csv just to have a file (but constraint should be inactive)
Reading model...
...model read.
creating competitive generators file...
...competitive generators recorded.
Loading data...
.. day-ahead data with real-time VRE data read.
Compiling instance...
...instance created.
Creating Offer Mitigation (model will solve as dispatch if TRUE)...
NOTE: storage offers will not be mitigated
...storage offer mitigation file created
Converting model to MPEC...
...converted
NOTE: initial MIP solve with only storage competitive to get feasible solution
Solving...

Welcome to IBM(R) ILOG(R) CPLEX(R) Interactive Optimizer 12.9.0.0
  with Simplex, Mixed Integer & Barrier Optimizers
5725-A06 5725-A29 5724-Y48 5724-Y49 5724-Y54 5724-Y55 5655-Y21
Copyright IBM Corp. 1988, 2019.  All Rights Reserved.

Type 'help' for a list of available commands.
Type 'help' followed by a command name for more
information on commands.

CPLEX> Logfile 'cplex.log' closed.
Logfile 'C:\Users\llavin\Desktop\test826\logs\tmp543h9dln.cplex.log' open.
CPLEX> New value for parallel optimization mode: -1
CPLEX> New value for mixed integer optimality gap tolerance: 0.02
CPLEX> New value for integrality tolerance: 1e-12
CPLEX> New value for deterministic time limit in ticks: 65000
CPLEX> Problem 'C:\Users\llavin\Desktop\test826\logs\tmp539rvjas.pyomo.lp' read.
Read time = 0.22 sec. (13.64 ticks)
CPLEX> Problem name         : C:\Users\llavin\Desktop\test826\logs\tmp539rvjas.pyomo.lp
Objective sense      : Maximize
Variables            :   53815  [Nneg: 1,  Box: 22002,  Free: 4464,
                                 Binary: 27348]
Objective nonzeros   :    8980
Linear constraints   :  123235  [Less: 41356,  Greater: 59114,  Equal: 22765]
  Nonzeros           :  292605
  RHS nonzeros       :   67515

Variables            : Min LB: -5000.000        Max UB: 1000000.       
Objective nonzeros   : Min   : 0.4000000        Max   : 834.3917       
Linear constraints   :
  Nonzeros           : Min   : 0.4000000        Max   : 1000000.       
  RHS nonzeros       : Min   : 0.001000000      Max   : 1000000.       
CPLEX> CPXPARAM_Parallel                                -1
CPXPARAM_DetTimeLimit                            65000
CPXPARAM_MIP_Tolerances_MIPGap                   0.02
CPXPARAM_MIP_Tolerances_Integrality              9.9999999999999998e-13
Tried aggregator 3 times.
MIP Presolve eliminated 88643 rows and 18923 columns.
MIP Presolve added 3403 rows and 0 columns.
MIP Presolve modified 24942 coefficients.
Aggregator did 13031 substitutions.
Reduced MIP has 24964 rows, 21305 columns, and 71396 nonzeros.
Reduced MIP has 8418 binaries, 0 generals, 0 SOSs, and 0 indicators.
Presolve time = 0.28 sec. (173.06 ticks)
Probing fixed 406 vars, tightened 3861 bounds.
Probing time = 0.06 sec. (19.46 ticks)
Tried aggregator 2 times.
MIP Presolve eliminated 920 rows and 819 columns.
MIP Presolve modified 3038 coefficients.
Aggregator did 24 substitutions.
Reduced MIP has 24020 rows, 20462 columns, and 68650 nonzeros.
Reduced MIP has 8010 binaries, 0 generals, 0 SOSs, and 0 indicators.
Presolve time = 0.11 sec. (89.45 ticks)
Probing fixed 0 vars, tightened 390 bounds.
Probing time = 0.13 sec. (23.15 ticks)
Clique table members: 44739.
MIP emphasis: balance optimality and feasibility.
MIP search method: dynamic search.
Parallel mode: opportunistic, using up to 32 threads.
Root relaxation solution time = 0.31 sec. (557.32 ticks)

        Nodes                                         Cuts/
   Node  Left     Objective  IInf  Best Integer    Best Bound    ItCnt     Gap

      0     0        0.0000    52                      0.0000     4747         
*     0+    0                            0.0000        0.0000             0.00%
      0     0        cutoff              0.0000        0.0000     4747    0.00%
Elapsed time = 1.36 sec. (1160.20 ticks, tree = 0.01 MB, solutions = 1)

Root node processing (before b&c):
  Real time             =    1.38 sec. (1162.14 ticks)
Parallel b&c, 32 threads:
  Real time             =    0.00 sec. (0.00 ticks)
  Sync time (average)   =    0.00 sec.
  Wait time (average)   =    0.00 sec.
                          ------------
Total (root+branch&cut) =    1.38 sec. (1162.14 ticks)

Solution pool: 1 solution saved.

MIP - Integer optimal solution:  Objective =  0.0000000000e+00
Solution time =    1.38 sec.  Iterations = 4747  Nodes = 0
Deterministic time = 1162.30 ticks  (845.31 ticks/sec)

CPLEX> Incumbent solution written to file 'C:\Users\llavin\Desktop\test826\logs\tmptcas47u3.cplex.sol'.
CPLEX> NOTE: no warmstart specified for MIP iteration, default behavior is true
NOTE: resolving with all competitive generators using storage-only solution to warmstart
Solving...

Welcome to IBM(R) ILOG(R) CPLEX(R) Interactive Optimizer 12.9.0.0
  with Simplex, Mixed Integer & Barrier Optimizers
5725-A06 5725-A29 5724-Y48 5724-Y49 5724-Y54 5724-Y55 5655-Y21
Copyright IBM Corp. 1988, 2019.  All Rights Reserved.

Type 'help' for a list of available commands.
Type 'help' followed by a command name for more
information on commands.

CPLEX> Logfile 'cplex.log' closed.
Logfile 'C:\Users\llavin\Desktop\test826\logs\tmp8_vt4t1u.cplex.log' open.
CPLEX> New value for parallel optimization mode: -1
CPLEX> New value for mixed integer optimality gap tolerance: 0.02
CPLEX> New value for integrality tolerance: 1e-12
CPLEX> New value for deterministic time limit in ticks: 65000
CPLEX> Problem 'C:\Users\llavin\Desktop\test826\logs\tmpaz95devr.pyomo.lp' read.
Read time = 0.20 sec. (13.66 ticks)
CPLEX> MIP start file 'C:\Users\llavin\Desktop\test826\logs\tmp7z48sdrj.cplex.mst' read.
CPLEX> Problem name         : C:\Users\llavin\Desktop\test826\logs\tmpaz95devr.pyomo.lp
Objective sense      : Maximize
Variables            :   54535  [Nneg: 1,  Box: 22722,  Free: 4464,
                                 Binary: 27348]
Objective nonzeros   :    9676
Linear constraints   :  123235  [Less: 41356,  Greater: 59114,  Equal: 22765]
  Nonzeros           :  292605
  RHS nonzeros       :   67515

Variables            : Min LB: -5000.000        Max UB: 1000000.       
Objective nonzeros   : Min   : 0.4000000        Max   : 787.3167       
Linear constraints   :
  Nonzeros           : Min   : 0.4000000        Max   : 1000000.       
  RHS nonzeros       : Min   : 0.001000000      Max   : 1000000.       
CPLEX> CPXPARAM_Parallel                                -1
CPXPARAM_DetTimeLimit                            65000
CPXPARAM_MIP_Tolerances_MIPGap                   0.02
CPXPARAM_MIP_Tolerances_Integrality              9.9999999999999998e-13
Warning:  No solution found from 1 MIP starts.
Retaining values of one MIP start for possible repair.
Tried aggregator 3 times.
MIP Presolve eliminated 88643 rows and 19643 columns.
MIP Presolve added 3403 rows and 0 columns.
MIP Presolve modified 24942 coefficients.
Aggregator did 13031 substitutions.
Reduced MIP has 24964 rows, 21305 columns, and 71396 nonzeros.
Reduced MIP has 8418 binaries, 0 generals, 0 SOSs, and 0 indicators.
Presolve time = 0.27 sec. (173.42 ticks)
Probing fixed 406 vars, tightened 3861 bounds.
Probing time = 0.06 sec. (19.46 ticks)
Tried aggregator 2 times.
MIP Presolve eliminated 920 rows and 819 columns.
MIP Presolve modified 3038 coefficients.
Aggregator did 24 substitutions.
Reduced MIP has 24020 rows, 20462 columns, and 68650 nonzeros.
Reduced MIP has 8010 binaries, 0 generals, 0 SOSs, and 0 indicators.
Presolve time = 0.13 sec. (89.46 ticks)
Probing fixed 0 vars, tightened 390 bounds.
Probing time = 0.11 sec. (23.15 ticks)
Clique table members: 44739.
MIP emphasis: balance optimality and feasibility.
MIP search method: dynamic search.
Parallel mode: opportunistic, using up to 32 threads.
Root relaxation solution time = 0.41 sec. (609.41 ticks)

        Nodes                                         Cuts/
   Node  Left     Objective  IInf  Best Integer    Best Bound    ItCnt     Gap

      0     0    65326.2542   272                  65326.2542     5072         
*     0+    0                            0.0000    65326.2542              --- 
      0     0    62613.9664   164        0.0000     Cuts: 102     5149     --- 
      0     0    62613.9664   170        0.0000     Cuts: 138     5264     --- 
*     0+    0                            0.0001    62613.9664              --- 
      0     0    62613.9664   113        0.0001     Cuts: 224     5352     --- 
      0     0    62613.9664   113        0.0001      Cuts: 41     5367     --- 
Repair heuristic found nothing.
      0     8    infeasible              0.0001    56739.7088     5603     --- 
Elapsed time = 5.05 sec. (2524.61 ticks, tree = 0.02 MB, solutions = 2)
    422    96    14880.1103    11        0.0001    53258.4307     8280     --- 
    974   220        cutoff              0.0001    52361.1495    13175     --- 
   1665   293        cutoff              0.0001    24441.0372    15304     --- 
   2340    68    infeasible              0.0001     7017.2398    24825     --- 
   2641    65        cutoff              0.0001     7017.2398    25616     --- 

Implied bound cuts applied:  15
Flow cuts applied:  66
Mixed integer rounding cuts applied:  22

Root node processing (before b&c):
  Real time             =    3.88 sec. (2515.66 ticks)
Parallel b&c, 32 threads:
  Real time             =    7.16 sec. (1214.10 ticks)
  Sync time (average)   =    1.67 sec.
  Wait time (average)   =    0.00 sec.
                          ------------
Total (root+branch&cut) =   11.03 sec. (3729.76 ticks)

Solution pool: 2 solutions saved.

MIP - Integer optimal solution:  Objective =  5.9576985973e-05
Solution time =   11.08 sec.  Iterations = 26839  Nodes = 2643
Deterministic time = 3729.91 ticks  (336.70 ticks/sec)

CPLEX> Incumbent solution written to file 'C:\Users\llavin\Desktop\test826\logs\tmplr11sozv.cplex.sol'.
CPLEX> Exporting results... 
